5 77 74 35 25 40 31 36 1 12 61 71 55 84 70 11 4 44 41 38 3 51 72 39 47 62 18 8 53 26 42 96 29 24 13 79 22 52 93 68 76 95 73 90 28 91 50 67 65 45 33 60 30 85 63 49 75 58 15 48 98 89 16 56 99 43 54 6 9 0 97 86 10 81 64 34 66 32 20 87 88 83 92 19 80 69 14 57 7 37 21 2 27 46 94 82 23 59 78 17